coords = array2d(1..48, 1..2, [347, 527, 284, 895, 224, 274, 269, 608, 648,
    845, 122, 853, 648, 119, 378, 220, 859, 629, 873, 695, 189, 869,
    901, 114, 429, 38, 329, 693, 68, 323, 222, 295, 181, 586, 960,
    699, 177, 889, 461, 948, 177, 886, 861, 473, 746, 582, 20, 854,
    738, 25, 738, 143, 702, 572, 603, 662, 100, 613, 229, 309, 728,
    943, 122, 550, 783, 715, 53, 594, 872, 56, 93, 546, 236, 410, 925,
    120, 823, 407, 717, 779, 632, 705, 21, 615, 202, 444, 178, 611,
    133, 688, 85, 693, 485, 984, 275, 818]);

n = 48;

